c   #vars: 129   #clauses: 575   #literals: 1558
c 
p cnf 129 575
-1 -2 0
-3 -4 0
27 28 38 -118 0
-6 -7 0
-8 -9 0
-10 -11 0
-12 -13 0
17 18 37 -59 0
-15 -16 0
-17 -18 0
-19 -20 0
-21 -22 0
-23 -24 0
-25 -26 0
-27 -28 0
-29 -30 0
-31 -32 0
-33 -34 0
-35 -36 0
25 26 49 -59 0
-39 -40 0
-41 -42 0
23 24 96 97 0
43 44 96 97 0
-43 -44 0
-45 -46 0
-47 -48 0
45 46 89 -120 0
-50 -51 0
-53 -54 0
-55 -56 0
-57 -58 0
-59 -60 0
-61 -62 0
-63 -64 0
-65 -66 0
-67 -68 0
-10 49 60 0
81 82 114 115 0
-69 -70 0
-71 -72 0
-73 -74 0
-75 -76 0
-77 -78 0
-79 -80 0
-81 -82 0
27 28 81 82 0
-83 -84 0
-85 -86 0
-87 -88 0
94 95 102 -118 0
-90 -91 0
-92 -93 0
-94 -95 0
-96 -97 0
-98 -99 0
-100 -101 0
23 24 103 -126 0
-23 94 95 124 0
110 111 120 121 0
27 28 116 117 0
-104 -105 0
-106 -107 0
-108 -109 0
-110 -111 0
-112 -113 0
3 4 87 88 0
-114 -115 0
-116 -117 0
-118 -119 0
5 -47 63 64 0
-120 -121 0
-122 -123 0
-33 92 93 125 0
14 71 72 -112 0
17 18 90 91 0
-126 -127 0
1 2 57 58 0
-128 -129 0
-1 -55 0
-2 -56 0
33 34 41 42 0
-1 -57 0
-2 -58 0
-1 -81 0
-2 -82 0
69 70 98 99 0
-1 -90 0
-2 -91 0
1 2 55 56 0
-1 -122 0
-2 -123 0
6 7 67 68 0
-3 -12 0
-4 -13 0
73 74 87 88 0
-3 -75 0
-4 -76 0
-3 -77 0
-4 -78 0
43 44 92 93 0
-3 -87 0
-4 -88 0
63 64 108 109 0
-3 -100 0
-4 -101 0
6 7 57 58 0
-3 -110 0
-4 -111 0
50 51 122 123 0
27 28 38 -39 0
-5 -26 0
17 18 47 48 0
38 -39 118 119 0
-5 -48 0
33 34 94 95 0
-27 38 118 119 0
-5 -64 0
37 -59 126 127 0
-7 -14 0
8 9 77 78 0
-6 -55 0
-7 -56 0
39 40 92 93 0
-6 -57 0
-7 -58 0
43 44 69 70 0
-6 -67 0
-7 -68 0
-6 -83 0
-7 -84 0
47 48 114 115 0
-19 92 93 125 0
-7 -124 0
10 11 69 70 0
-8 -12 0
-9 -13 0
-9 -52 0
10 11 21 22 0
-8 -65 0
-9 -66 0
57 58 81 82 0
-8 -77 0
-9 -78 0
-8 -96 0
-9 -97 0
33 34 108 109 0
-8 -98 0
-9 -99 0
10 11 12 13 0
-10 -12 0
-11 -13 0
17 18 104 105 0
-10 -21 0
-11 -22 0
8 9 12 13 0
-10 -41 0
-11 -42 0
15 16 47 48 0
-21 45 46 89 0
-11 -49 0
3 4 12 13 0
-10 -59 0
-11 -60 0
-10 -69 0
-11 -70 0
25 26 67 68 0
-12 -39 0
-13 -40 0
35 36 81 82 0
-12 -79 0
-13 -80 0
25 26 61 62 0
-12 -81 0
-13 -82 0
-21 89 120 121 0
-17 37 126 127 0
-14 -72 0
45 46 55 56 0
83 84 122 123 0
14 -71 112 113 0
6 7 14 -71 0
37 59 60 -126 0
-14 -113 0
-15 -31 0
-16 -32 0
-15 -47 0
-16 -48 0
53 54 81 82 0
-15 -57 0
-16 -58 0
-15 -128 0
-16 -129 0
35 36 87 88 0
-17 -25 0
-18 -26 0
10 11 41 42 0
-17 -35 0
-18 -36 0
5 47 48 -63 0
-18 -37 0
27 28 126 127 0
-17 -47 0
-18 -48 0
-19 33 34 125 0
-17 -90 0
-18 -91 0
73 74 114 115 0
-17 -104 0
-18 -105 0
23 24 47 48 0
-17 -112 0
-18 -113 0
-19 -41 0
-20 -42 0
112 113 126 127 0
-19 -83 0
-20 -84 0
53 54 83 84 0
-19 -108 0
-20 -109 0
29 30 110 111 0
-20 -125 0
92 93 122 123 0
-35 94 95 102 0
-22 -89 0
50 51 118 119 0
-21 -104 0
-22 -105 0
71 72 110 111 0
-21 -122 0
-22 -123 0
15 16 31 32 0
-23 -47 0
-24 -48 0
81 82 120 121 0
-23 -53 0
-24 -54 0
90 91 106 107 0
-23 -96 0
-24 -97 0
25 26 52 -110 0
-6 94 95 124 0
-24 -103 0
39 40 59 60 0
19 20 -92 125 0
-24 -124 0
21 22 89 -120 0
-26 -49 0
15 16 57 58 0
-26 -52 0
61 62 63 64 0
-25 -61 0
-26 -62 0
69 70 100 101 0
-25 -67 0
-26 -68 0
65 66 100 101 0
-10 25 26 49 0
-28 -38 0
59 60 90 91 0
-27 -65 0
-28 -66 0
-25 52 110 111 0
-27 -71 0
-28 -72 0
33 34 106 107 0
-27 -81 0
-28 -82 0
94 95 118 119 0
-27 -110 0
-28 -111 0
116 117 120 121 0
-27 -116 0
-28 -117 0
17 18 35 36 0
-27 -126 0
-28 -127 0
-6 14 71 72 0
-29 -75 0
-30 -76 0
17 18 112 113 0
-29 -106 0
-30 -107 0
65 66 85 86 0
-29 -110 0
-30 -111 0
27 28 110 111 0
-29 -126 0
-30 -127 0
79 80 106 107 0
-31 -50 0
-32 -51 0
43 44 98 99 0
-31 -55 0
-32 -56 0
27 28 71 72 0
-31 -98 0
-32 -99 0
33 34 104 105 0
-31 -114 0
-32 -115 0
50 51 71 72 0
-33 -41 0
-34 -42 0
-33 -94 0
-34 -95 0
31 32 114 115 0
-33 -104 0
-34 -105 0
3 4 110 111 0
-33 -106 0
-34 -107 0
61 62 112 113 0
-33 -108 0
-34 -109 0
5 25 26 -47 0
23 24 -94 124 0
47 48 59 60 0
-34 -125 0
-35 -63 0
-36 -64 0
41 42 75 76 0
-35 -81 0
-36 -82 0
92 93 128 129 0
-35 -87 0
-36 -88 0
17 18 25 26 0
23 24 -77 103 0
-36 -102 0
19 20 41 42 0
-35 -126 0
-36 -127 0
-94 102 118 119 0
5 -25 47 48 0
-37 -60 0
83 84 118 119 0
35 36 63 64 0
-6 14 112 113 0
5 25 26 -63 0
-37 -127 0
11 49 -59 0
-38 -40 0
12 13 79 80 0
10 11 -25 49 0
-38 -119 0
55 56 65 66 0
-39 -59 0
-40 -60 0
-39 -73 0
-40 -74 0
-77 103 126 127 0
-39 -90 0
-40 -91 0
21 22 104 105 0
-39 -92 0
-40 -93 0
114 115 116 117 0
-39 -104 0
-40 -105 0
31 32 50 51 0
-41 -47 0
-42 -48 0
67 68 87 88 0
-41 -75 0
-42 -76 0
6 7 14 -112 0
-6 23 24 124 0
12 13 81 82 0
21 22 122 123 0
6 7 -94 124 0
67 68 128 129 0
-43 -53 0
-44 -54 0
67 68 100 101 0
-43 -69 0
-44 -70 0
29 30 126 127 0
-43 -92 0
-44 -93 0
-25 49 59 60 0
-43 -96 0
-44 -97 0
38 39 40 -118 0
-43 -98 0
-44 -99 0
-8 25 26 52 0
-45 -55 0
-46 -56 0
5 -25 63 64 0
35 36 102 -118 0
-46 -89 0
73 74 118 119 0
-45 -106 0
-46 -107 0
19 20 83 84 0
-45 -108 0
-46 -109 0
8 9 65 66 0
-47 -59 0
-48 -60 0
3 4 75 76 0
-47 -114 0
-48 -115 0
79 80 87 88 0
21 22 -45 89 0
-49 -60 0
50 51 53 54 0
-50 -53 0
-51 -54 0
1 2 122 123 0
-50 -71 0
-51 -72 0
-50 -85 0
-51 -86 0
43 44 53 54 0
-50 -118 0
-51 -119 0
23 24 53 54 0
-50 -122 0
-51 -123 0
83 84 98 99 0
8 9 52 -110 0
6 7 -23 124 0
-52 -111 0
-53 -77 0
-54 -78 0
6 7 55 56 0
-53 -81 0
-54 -82 0
55 56 71 72 0
-53 -83 0
-54 -84 0
10 11 59 60 0
-55 -65 0
-56 -66 0
-45 89 120 121 0
-55 -71 0
-56 -72 0
-57 -81 0
-58 -82 0
65 66 116 117 0
-59 -90 0
-60 -91 0
-61 -63 0
-62 -64 0
27 28 65 66 0
-61 -75 0
-62 -76 0
6 7 83 84 0
-61 -112 0
-62 -113 0
31 32 55 56 0
-63 -108 0
-64 -109 0
45 46 106 107 0
-65 -85 0
-66 -86 0
45 46 108 109 0
-65 -100 0
-66 -101 0
-35 102 118 119 0
-65 -116 0
-66 -117 0
69 70 85 86 0
-67 -87 0
-68 -88 0
19 20 108 109 0
-67 -100 0
-68 -101 0
-67 -128 0
-68 -129 0
-27 38 39 40 0
8 9 -25 52 0
79 80 90 91 0
-69 -85 0
-70 -86 0
-69 -98 0
-70 -99 0
12 13 39 40 0
-69 -100 0
-70 -101 0
41 42 47 48 0
-71 -110 0
-72 -111 0
75 76 128 129 0
-73 -87 0
-74 -88 0
61 62 75 76 0
-73 -114 0
-74 -115 0
29 30 75 76 0
-73 -118 0
-74 -119 0
1 2 81 82 0
-75 -128 0
-76 -129 0
50 51 85 86 0
-78 -103 0
83 84 85 86 0
-79 -87 0
-80 -88 0
1 2 90 91 0
-79 -90 0
-80 -91 0
53 54 77 78 0
-79 -106 0
-80 -107 0
3 4 100 101 0
-81 -114 0
-82 -115 0
15 16 128 129 0
-81 -120 0
-82 -121 0
33 34 -92 125 0
-83 -85 0
-84 -86 0
96 97 106 107 0
-83 -98 0
-84 -99 0
96 97 122 123 0
-83 -118 0
-84 -119 0
35 36 126 127 0
-83 -122 0
-84 -123 0
35 36 -94 102 0
-89 -121 0
-8 52 110 111 0
-90 -106 0
-91 -107 0
29 30 106 107 0
-92 -122 0
-93 -123 0
31 32 98 99 0
-93 -125 0
-92 -128 0
-93 -129 0
94 95 96 97 0
-94 -96 0
-95 -97 0
77 78 103 -126 0
-95 -102 0
8 9 96 97 0
-94 -118 0
-95 -119 0
-17 37 59 60 0
19 20 -33 125 0
-95 -124 0
8 9 98 99 0
-96 -106 0
-97 -107 0
98 99 104 105 0
-96 -122 0
-97 -123 0
17 18 37 -126 0
-98 -104 0
-99 -105 0
39 40 73 74 0
-23 77 78 103 0
-102 -119 0
39 40 90 91 0
-103 -127 0
39 40 104 105 0
-110 -120 0
-111 -121 0
3 4 77 78 0
-112 -126 0
-113 -127 0
-23 103 126 127 0
-114 -116 0
-115 -117 0
-116 -120 0
-117 -121 0
